s td 21 4 25
b 1 1
b 2 2 7
b 3 3 10
b 4 7 19
b 5 10 18
b 6 6 18
b 7 12 19
b 8 5 16 24
b 9 6 12 13 23
b 10 14 15 22
b 11 15 16 22
b 12 12 15 16 24
b 13 12 15 23
b 14 12 15 24
b 15 4 20
b 16 11 21
b 17 17 21
b 18 17 20
b 19 8 20
b 20 8 25
b 21 9
1 2
1 15
1 21
2 4
3 5
4 7
5 6
6 9
7 14
8 12
9 13
10 11
11 12
12 14
13 14
15 19
16 17
17 18
18 19
19 20
